
--- Job HR_ref.gms Start 07/22/15 21:20:25 24.4.5 r52258 WEX-VS8 x86 32bit/MS Windows
GAMS 24.4.5   Copyright (C) 1987-2015 GAMS Development. All rights reserved
Licensee: Ignacio E. Grossmann                           G150105/0001AO-GEN
          Carnegie Mellon University, Dept. of Chemical Engineering  DC9476
          License for teaching and research at degree granting institutions
--- Starting continued compilation
--- Workfile was generated under GAMS version WIN244-244
--- HR_ref.gms(36) 3 Mb
--- .max_time_ref.gms(1) 3 Mb
--- HR_ref.gms(57) 3 Mb
--- Starting execution: elapsed 0:00:00.003
--- HR_ref.gms(88) 4 Mb
--- Generating RMIP model prob
--- HR_ref.gms(93) 4 Mb
---   795 rows  336 columns  1,590 non-zeroes
---   60 discrete-columns
--- Executing CPLEX: elapsed 0:00:00.017

IBM ILOG CPLEX   24.4.5 r52258 Released May 26, 2015 VS8 x86 32bit/MS Windows 
--- GAMS/Cplex licensed for continuous and discrete problems.
Cplex 12.6.1.0

Reading data...
Starting Cplex...
Space for names approximately 0.02 Mb
Use option 'names no' to turn use of names off
Tried aggregator 1 time.
LP Presolve eliminated 745 rows and 300 columns.
Aggregator did 13 substitutions.
Reduced LP has 37 rows, 23 columns, and 102 nonzeros.
Presolve time = 0.00 sec. (0.26 ticks)
Initializing dual steep norms . . .

Iteration log . . .
Iteration:     1   Scaled dual infeas =             0.000000
Iteration:     2   Dual objective     =            82.000000
LP status(1): optimal
Cplex Time: 0.00sec (det. 0.58 ticks)

Optimal solution found.
Objective :          82.000000

--- Restarting execution
--- HR_ref.gms(93) 2 Mb
--- Reading solution for model prob
--- Executing after solve: elapsed 0:00:00.106
--- HR_ref.gms(95) 3 Mb
--- Generating MIP model prob
--- HR_ref.gms(97) 3 Mb
---   795 rows  336 columns  1,590 non-zeroes
---   60 discrete-columns
--- Executing CPLEX: elapsed 0:00:00.184

IBM ILOG CPLEX   24.4.5 r52258 Released May 26, 2015 VS8 x86 32bit/MS Windows 
--- GAMS/Cplex licensed for continuous and discrete problems.
Cplex 12.6.1.0

Reading data...
Starting Cplex...
Space for names approximately 0.02 Mb
Use option 'names no' to turn use of names off
Tried aggregator 2 times.
MIP Presolve eliminated 745 rows and 300 columns.
MIP Presolve modified 8 coefficients.
Aggregator did 13 substitutions.
Reduced MIP has 37 rows, 23 columns, and 102 nonzeros.
Reduced MIP has 5 binaries, 0 generals, 0 SOSs, and 0 indicators.
Presolve time = 0.00 sec. (0.54 ticks)
Found incumbent of value 268.000000 after 0.00 sec. (0.65 ticks)
Probing time = 0.00 sec. (0.01 ticks)
Tried aggregator 1 time.
Reduced MIP has 37 rows, 23 columns, and 102 nonzeros.
Reduced MIP has 5 binaries, 0 generals, 0 SOSs, and 0 indicators.
Presolve time = 0.00 sec. (0.06 ticks)
Probing time = 0.00 sec. (0.01 ticks)
MIP emphasis: balance optimality and feasibility.
MIP search method: dynamic search.
Parallel mode: none, using 1 thread.
Tried aggregator 1 time.
No LP presolve or aggregator reductions.
Presolve time = 0.00 sec. (0.01 ticks)
Initializing dual steep norms . . .

Iteration log . . .
Iteration:     1   Dual objective     =            82.000000
Root relaxation solution time = 0.00 sec. (0.04 ticks)

        Nodes                                         Cuts/
   Node  Left     Objective  IInf  Best Integer    Best Bound    ItCnt     Gap

*     0+    0                          268.0000       82.0000            69.40%
Found incumbent of value 268.000000 after 0.06 sec. (0.81 ticks)
      0     0       82.0000     2      268.0000       82.0000        7   69.40%
*     0+    0                           82.0000       82.0000             0.00%
Found incumbent of value 82.000000 after 0.06 sec. (0.86 ticks)
      0     0        cutoff             82.0000       82.0000        7    0.00%
Elapsed time = 0.06 sec. (0.86 ticks, tree = 0.00 MB, solutions = 2)

Root node processing (before b&c):
  Real time             =    0.06 sec. (0.87 ticks)
Sequential b&c:
  Real time             =    0.00 sec. (0.00 ticks)
                          ------------
Total (root+branch&cut) =    0.06 sec. (0.87 ticks)
MIP status(101): integer optimal solution
Cplex Time: 0.08sec (det. 0.87 ticks)
Fixing integer variables, and solving final LP...
Tried aggregator 1 time.
LP Presolve eliminated 782 rows and 323 columns.
Aggregator did 10 substitutions.
Reduced LP has 3 rows, 3 columns, and 6 nonzeros.
Presolve time = 0.00 sec. (0.24 ticks)
Initializing dual steep norms . . .

Iteration log . . .
Iteration:     1   Dual objective     =            82.000000
Fixed MIP status(1): optimal
Cplex Time: 0.00sec (det. 0.51 ticks)

Proven optimal solution.

MIP Solution:           82.000000    (7 iterations, 0 nodes)
Final Solve:            82.000000    (1 iterations)

Best possible:          82.000000
Absolute gap:            0.000000
Relative gap:            0.000000

--- Restarting execution
--- HR_ref.gms(97) 2 Mb
--- Reading solution for model prob
--- Executing after solve: elapsed 0:00:00.325
--- HR_ref.gms(107) 3 Mb
*** Status: Normal completion
--- Job HR_ref.gms Stop 07/22/15 21:20:26 elapsed 0:00:00.330
